benchmarks_vrp/CMT5/fixed_c/CMT5_4.vrp
NAME: CMT5_4
TYPE: CVRP
COMMENT: 1291.29 - Cluster Nr.4
DIMENSION: 15
CAPACITY: 200
EDGE_WEIGHT_TYPE: EUC_2D
NODE_COORD_TYPE: TWOD_COORDS
NODE_COORD_SECTION: 
5 37 69
3 42 57
7 31 67
13 31 62
1 35 69
8 31 76
14 27 68
2 40 60
6 40 66
11 49 73
15 27 69
4 43 67
10 45 65
12 35 35
9 47 66
DEPOT_SECTION: 
12
-1
DEMAND_SECTION: 
7 3
12 0
9 24
2 21
15 10
13 23
5 11
1 23
3 8
11 25
6 26
14 7
4 14
10 9
8 25
EOF
